% Logging successfully configured
%%%mzn-stat: initTime=0.013265478
%%%mzn-stat: objective=909
%%%mzn-stat: nodes=249
%%%mzn-stat: restarts=0
%%%mzn-stat: peakDepth=130
%%%mzn-stat: solveTime=0.005232936
%%%mzn-stat: variables=288
%%%mzn-stat: propagators=378
%%%mzn-stat: failures=101
%%%mzn-stat: propagations=12767
%%%mzn-stat: nogoods=101
%%%mzn-stat: numAtomicConstraintsPropagated=0
%%%mzn-stat: circuitNumber191PropagationsThatFoundConflict=25
%%%mzn-stat: circuitNumber191TotalFixedEdgesAtConflict=385
%%%mzn-stat: circuitNumber191NumberOfConflicts=25
%%%mzn-stat: circuitNumber191PropagationsThatPruned=19
%%%mzn-stat: circuitNumber191PropagationsTotal=169
%%%mzn-stat: AverageConflictSize=4.099009900990099
%%%mzn-stat: NumUnitNogoodsLearned=0
%%%mzn-stat: AverageLearnedNogoodLength=9.099009900990099
%%%mzn-stat: AverageBacktrackAmount=0
%%%mzn-stat: AverageLbd=5.97029702970297
%%%mzn-stat: 2AutonomousSearchNumBackupCalled=120
%%%mzn-stat: 2AutonomousSearchNumPredicatesRemoved=0
%%%mzn-stat: 2AutonomousSearchNumCalls=121
%%%mzn-stat: 2AutonomousSearchNumPredicatesAdded=389
%%%mzn-stat: 2AutonomousSearchAverageSizeOfHeap=3.2148760330578514
%%%mzn-stat: 2AutonomousSearchNumAssignedPredicatesEncountered=389
%%%mzn-stat-end
maxleg = 909;
succ = array1d(1..20,[3, 12, 2, 5, 8, 7, 20, 9, 14, 4, 15, 13, 16, 18, 10, 17, 11, 19, 6, 1]);
% time elapsed: 5.78 s
----------
%%%mzn-stat: initTime=0.013265478
%%%mzn-stat: objective=567
%%%mzn-stat: nodes=440
%%%mzn-stat: restarts=0
%%%mzn-stat: peakDepth=130
%%%mzn-stat: solveTime=0.009165182
%%%mzn-stat: variables=288
%%%mzn-stat: propagators=378
%%%mzn-stat: failures=161
%%%mzn-stat: propagations=20950
%%%mzn-stat: nogoods=161
%%%mzn-stat: numAtomicConstraintsPropagated=0
%%%mzn-stat: circuitNumber191PropagationsThatFoundConflict=36
%%%mzn-stat: circuitNumber191TotalFixedEdgesAtConflict=529
%%%mzn-stat: circuitNumber191NumberOfConflicts=36
%%%mzn-stat: circuitNumber191PropagationsThatPruned=30
%%%mzn-stat: circuitNumber191PropagationsTotal=280
%%%mzn-stat: AverageConflictSize=4.211180124223603
%%%mzn-stat: NumUnitNogoodsLearned=0
%%%mzn-stat: AverageLearnedNogoodLength=9.900621118012422
%%%mzn-stat: AverageBacktrackAmount=0
%%%mzn-stat: AverageLbd=6.366459627329193
%%%mzn-stat: 2AutonomousSearchNumBackupCalled=227
%%%mzn-stat: 2AutonomousSearchNumPredicatesRemoved=0
%%%mzn-stat: 2AutonomousSearchNumCalls=229
%%%mzn-stat: 2AutonomousSearchNumPredicatesAdded=787
%%%mzn-stat: 2AutonomousSearchAverageSizeOfHeap=3.589519650655022
%%%mzn-stat: 2AutonomousSearchNumAssignedPredicatesEncountered=822
%%%mzn-stat-end
maxleg = 567;
succ = array1d(1..20,[3, 12, 2, 5, 8, 11, 20, 9, 14, 7, 13, 10, 16, 18, 1, 17, 15, 19, 6, 4]);
% time elapsed: 5.78 s
----------
%%%mzn-stat: initTime=0.013265478
%%%mzn-stat: objective=528
%%%mzn-stat: nodes=620
%%%mzn-stat: restarts=0
%%%mzn-stat: peakDepth=130
%%%mzn-stat: solveTime=0.012264349
%%%mzn-stat: variables=288
%%%mzn-stat: propagators=378
%%%mzn-stat: failures=206
%%%mzn-stat: propagations=27596
%%%mzn-stat: nogoods=206
%%%mzn-stat: numAtomicConstraintsPropagated=0
%%%mzn-stat: circuitNumber191PropagationsThatFoundConflict=48
%%%mzn-stat: circuitNumber191TotalFixedEdgesAtConflict=712
%%%mzn-stat: circuitNumber191NumberOfConflicts=48
%%%mzn-stat: circuitNumber191PropagationsThatPruned=42
%%%mzn-stat: circuitNumber191PropagationsTotal=377
%%%mzn-stat: AverageConflictSize=4.368932038834951
%%%mzn-stat: NumUnitNogoodsLearned=0
%%%mzn-stat: AverageLearnedNogoodLength=10.393203883495145
%%%mzn-stat: AverageBacktrackAmount=0
%%%mzn-stat: AverageLbd=6.427184466019417
%%%mzn-stat: 2AutonomousSearchNumBackupCalled=335
%%%mzn-stat: 2AutonomousSearchNumPredicatesRemoved=0
%%%mzn-stat: 2AutonomousSearchNumCalls=338
%%%mzn-stat: 2AutonomousSearchNumPredicatesAdded=1185
%%%mzn-stat: 2AutonomousSearchAverageSizeOfHeap=3.739644970414201
%%%mzn-stat: 2AutonomousSearchNumAssignedPredicatesEncountered=1264
%%%mzn-stat-end
maxleg = 528;
succ = array1d(1..20,[3, 12, 2, 5, 8, 13, 20, 9, 14, 15, 7, 10, 1, 18, 16, 17, 11, 19, 6, 4]);
% time elapsed: 5.78 s
----------
%%%mzn-stat: initTime=0.013265478
%%%mzn-stat: objective=449
%%%mzn-stat: nodes=1167
%%%mzn-stat: restarts=0
%%%mzn-stat: peakDepth=130
%%%mzn-stat: solveTime=0.037427218
%%%mzn-stat: variables=288
%%%mzn-stat: propagators=378
%%%mzn-stat: failures=605
%%%mzn-stat: propagations=74491
%%%mzn-stat: nogoods=605
%%%mzn-stat: numAtomicConstraintsPropagated=0
%%%mzn-stat: circuitNumber191PropagationsThatFoundConflict=77
%%%mzn-stat: circuitNumber191TotalFixedEdgesAtConflict=1143
%%%mzn-stat: circuitNumber191NumberOfConflicts=77
%%%mzn-stat: circuitNumber191PropagationsThatPruned=119
%%%mzn-stat: circuitNumber191PropagationsTotal=813
%%%mzn-stat: AverageConflictSize=4.1173553719008265
%%%mzn-stat: NumUnitNogoodsLearned=0
%%%mzn-stat: AverageLearnedNogoodLength=12.03801652892562
%%%mzn-stat: AverageBacktrackAmount=0
%%%mzn-stat: AverageLbd=5.722314049586777
%%%mzn-stat: 2AutonomousSearchNumBackupCalled=435
%%%mzn-stat: 2AutonomousSearchNumPredicatesRemoved=0
%%%mzn-stat: 2AutonomousSearchNumCalls=439
%%%mzn-stat: 2AutonomousSearchNumPredicatesAdded=1718
%%%mzn-stat: 2AutonomousSearchAverageSizeOfHeap=4.255125284738041
%%%mzn-stat: 2AutonomousSearchNumAssignedPredicatesEncountered=1868
%%%mzn-stat-end
maxleg = 449;
succ = array1d(1..20,[3, 12, 7, 5, 8, 11, 20, 9, 14, 1, 13, 10, 15, 18, 17, 2, 16, 19, 6, 4]);
% time elapsed: 5.80 s
----------
%%%mzn-stat: initTime=0.013265478
%%%mzn-stat: objective=403
%%%mzn-stat: nodes=1265
%%%mzn-stat: restarts=0
%%%mzn-stat: peakDepth=130
%%%mzn-stat: solveTime=0.037740363
%%%mzn-stat: variables=288
%%%mzn-stat: propagators=378
%%%mzn-stat: failures=605
%%%mzn-stat: propagations=75204
%%%mzn-stat: nogoods=605
%%%mzn-stat: numAtomicConstraintsPropagated=0
%%%mzn-stat: circuitNumber191PropagationsThatFoundConflict=77
%%%mzn-stat: circuitNumber191TotalFixedEdgesAtConflict=1143
%%%mzn-stat: circuitNumber191NumberOfConflicts=77
%%%mzn-stat: circuitNumber191PropagationsThatPruned=121
%%%mzn-stat: circuitNumber191PropagationsTotal=826
%%%mzn-stat: AverageConflictSize=4.1173553719008265
%%%mzn-stat: NumUnitNogoodsLearned=0
%%%mzn-stat: AverageLearnedNogoodLength=12.03801652892562
%%%mzn-stat: AverageBacktrackAmount=0
%%%mzn-stat: AverageLbd=5.722314049586777
%%%mzn-stat: 2AutonomousSearchNumBackupCalled=521
%%%mzn-stat: 2AutonomousSearchNumPredicatesRemoved=0
%%%mzn-stat: 2AutonomousSearchNumCalls=526
%%%mzn-stat: 2AutonomousSearchNumPredicatesAdded=1718
%%%mzn-stat: 2AutonomousSearchAverageSizeOfHeap=4.699619771863118
%%%mzn-stat: 2AutonomousSearchNumAssignedPredicatesEncountered=2472
%%%mzn-stat-end
maxleg = 403;
succ = array1d(1..20,[3, 12, 7, 5, 8, 11, 20, 14, 18, 1, 13, 10, 15, 9, 17, 2, 16, 19, 6, 4]);
% time elapsed: 5.80 s
----------
%%%mzn-stat: initTime=0.013265478
%%%mzn-stat: objective=402
%%%mzn-stat: nodes=1742
%%%mzn-stat: restarts=0
%%%mzn-stat: peakDepth=130
%%%mzn-stat: solveTime=0.058944062
%%%mzn-stat: variables=288
%%%mzn-stat: propagators=378
%%%mzn-stat: failures=906
%%%mzn-stat: propagations=113889
%%%mzn-stat: nogoods=906
%%%mzn-stat: numAtomicConstraintsPropagated=0
%%%mzn-stat: circuitNumber191PropagationsThatFoundConflict=194
%%%mzn-stat: circuitNumber191TotalFixedEdgesAtConflict=2521
%%%mzn-stat: circuitNumber191NumberOfConflicts=194
%%%mzn-stat: circuitNumber191PropagationsThatPruned=254
%%%mzn-stat: circuitNumber191PropagationsTotal=1377
%%%mzn-stat: AverageConflictSize=4.707505518763797
%%%mzn-stat: NumUnitNogoodsLearned=0
%%%mzn-stat: AverageLearnedNogoodLength=14.097130242825607
%%%mzn-stat: AverageBacktrackAmount=0
%%%mzn-stat: AverageLbd=5.684326710816777
%%%mzn-stat: 2AutonomousSearchNumBackupCalled=616
%%%mzn-stat: 2AutonomousSearchNumPredicatesRemoved=0
%%%mzn-stat: 2AutonomousSearchNumCalls=622
%%%mzn-stat: 2AutonomousSearchNumPredicatesAdded=2336
%%%mzn-stat: 2AutonomousSearchAverageSizeOfHeap=5.057877813504823
%%%mzn-stat: 2AutonomousSearchNumAssignedPredicatesEncountered=3146
%%%mzn-stat-end
maxleg = 402;
succ = array1d(1..20,[3, 13, 10, 20, 4, 19, 1, 5, 14, 12, 6, 2, 15, 8, 16, 17, 11, 9, 18, 7]);
% time elapsed: 5.82 s
----------
==========
% time elapsed: 5.93 s
%%%mzn-stat: initTime=0.013265478
%%%mzn-stat: objective=402
%%%mzn-stat: nodes=3612
%%%mzn-stat: restarts=0
%%%mzn-stat: peakDepth=130
%%%mzn-stat: solveTime=0.170913324
%%%mzn-stat: variables=288
%%%mzn-stat: propagators=378
%%%mzn-stat: failures=2244
%%%mzn-stat: propagations=287639
%%%mzn-stat: nogoods=2244
%%%mzn-stat: numAtomicConstraintsPropagated=0
%%%mzn-stat: circuitNumber191PropagationsThatFoundConflict=245
%%%mzn-stat: circuitNumber191TotalFixedEdgesAtConflict=3133
%%%mzn-stat: circuitNumber191NumberOfConflicts=245
%%%mzn-stat: circuitNumber191PropagationsThatPruned=788
%%%mzn-stat: circuitNumber191PropagationsTotal=3758
%%%mzn-stat: AverageConflictSize=5.688057040998218
%%%mzn-stat: NumUnitNogoodsLearned=1
%%%mzn-stat: AverageLearnedNogoodLength=16.29857397504456
%%%mzn-stat: AverageBacktrackAmount=0
%%%mzn-stat: AverageLbd=5.430035650623886
%%%mzn-stat: 2AutonomousSearchNumBackupCalled=616
%%%mzn-stat: 2AutonomousSearchNumPredicatesRemoved=0
%%%mzn-stat: 2AutonomousSearchNumCalls=622
%%%mzn-stat: 2AutonomousSearchNumPredicatesAdded=3065
%%%mzn-stat: 2AutonomousSearchAverageSizeOfHeap=5.057877813504823
%%%mzn-stat: 2AutonomousSearchNumAssignedPredicatesEncountered=3146
%%%mzn-stat-end
